c This is an instance of the exact track of PACE 2020 Challenge, see https://pacechallenge.org/2020/ 
c TYPE: biology 
c ORIGIN: www.genome.jp/kegg/ 
c DESCRIPTION: This is a graph derived from a biological pathway map. The nodes are genes (also representing their associated proteins), enzymes, or chemical compounds, and there is an edge between two nodes if they influence each other (such as a gene modifying the expression of another gene) or take part in a common chemical reaction. This graph is a connected part of the map "amj04010 MAPK signaling pathway - Alligator mississippiensis (American alligator)". 
p tdp 115 161
14 17
14 13
17 16
17 58
82 86
82 74
86 83
54 55
54 38
54 111
54 53
71 106
71 88
71 38
71 70
71 69
106 70
32 100
32 90
32 77
32 104
32 91
32 39
32 36
32 33
32 105
32 92
32 99
32 89
32 37
32 31
32 76
100 74
33 36
33 65
33 34
33 64
33 31
33 101
33 66
36 34
36 37
36 38
29 44
29 30
29 88
29 8
29 27
29 38
44 4
44 28
44 43
34 35
34 31
35 31
18 19
18 20
19 114
83 74
83 87
7 42
7 8
42 108
42 109
30 51
30 97
30 45
30 25
30 46
30 48
30 26
30 98
30 47
30 49
30 27
30 28
37 94
37 41
37 38
37 40
37 101
37 39
94 58
12 112
12 11
112 113
52 53
52 38
53 61
67 74
67 73
67 58
67 101
67 115
67 60
67 69
74 84
74 79
74 99
74 80
74 75
74 85
74 76
74 81
74 68
74 77
74 78
38 63
38 56
38 28
38 4
38 62
3 108
3 4
27 28
28 8
28 88
20 4
69 103
69 70
69 110
69 72
69 68
69 21
22 113
22 110
22 23
22 21
4 5
4 95
4 6
4 8
4 96
4 43
4 2
5 107
88 70
56 58
56 110
56 111
56 57
58 102
58 68
73 68
109 43
84 87
15 16
48 50
50 49
25 24
91 93
26 24
6 107
68 101
68 115
68 60
59 60
92 93
10 111
10 9
2 1
